HFVRP/X251-FSMD.vrp
NAME: X251-FSMD
COMMENT: Generated by Uchoa, Pecin, Pessoa, Poggi, Subramanian, and Vidal (2013). Modified by Sadykov, Pessoa and Uchoa (2017). Converted to PyVRP's VRPLIB dialect.
TYPE: HFVRP
DIMENSION: 251
VEHICLES: 750
EDGE_WEIGHT_TYPE: EUC_2D
NODE_COORD_SECTION
1	112	700
2	363	779
3	245	896
4	238	19
5	184	351
6	305	763
7	366	814
8	137	857
9	564	31
10	303	157
11	523	830
12	134	231
13	851	445
14	740	311
15	163	95
16	275	499
17	470	814
18	453	217
19	818	525
20	311	911
21	177	374
22	230	4
23	590	302
24	196	103
25	553	879
26	316	446
27	665	375
28	587	609
29	510	95
30	907	455
31	805	956
32	342	345
33	785	309
34	649	584
35	850	24
36	26	126
37	447	817
38	145	527
39	218	825
40	405	151
41	389	436
42	452	619
43	407	367
44	948	514
45	836	996
46	578	334
47	491	929
48	325	696
49	838	842
50	983	788
51	623	549
52	915	72
53	774	336
54	81	238
55	534	537
56	295	406
57	853	358
58	742	581
59	32	964
60	747	352
61	610	799
62	786	853
63	506	168
64	755	957
65	408	67
66	485	734
67	419	256
68	508	155
69	941	589
70	68	42
71	817	595
72	397	274
73	727	302
74	216	237
75	821	320
76	516	531
77	614	163
78	561	920
79	128	834
80	162	534
81	279	644
82	188	329
83	520	301
84	336	782
85	728	230
86	139	848
87	350	154
88	242	162
89	791	925
90	907	497
91	52	593
92	786	457
93	629	745
94	935	439
95	641	78
96	78	835
97	232	226
98	123	479
99	205	840
100	932	357
101	917	917
102	325	559
103	413	373
104	362	477
105	827	881
106	845	263
107	11	938
108	88	535
109	436	200
110	940	319
111	325	59
112	34	264
113	47	470
114	322	89
115	757	29
116	825	289
117	287	304
118	657	82
119	288	406
120	287	623
121	616	828
122	60	445
123	978	511
124	956	171
125	818	184
126	605	464
127	462	934
128	563	229
129	506	33
130	599	895
131	364	90
132	504	28
133	304	854
134	525	226
135	753	926
136	544	127
137	343	127
138	422	270
139	472	104
140	453	844
141	493	36
142	526	137
143	230	995
144	675	278
145	495	428
146	535	57
147	684	158
148	446	37
149	507	67
150	654	332
151	585	226
152	526	932
153	479	288
154	708	108
155	588	159
156	473	898
157	618	85
158	433	373
159	409	207
160	488	29
161	531	204
162	546	212
163	470	925
164	534	887
165	770	74
166	546	47
167	612	177
168	565	128
169	597	299
170	630	398
171	433	936
172	538	29
173	524	66
174	559	181
175	326	841
176	533	86
177	470	27
178	503	136
179	557	307
180	350	13
181	720	957
182	515	103
183	577	95
184	496	204
185	482	329
186	338	918
187	427	792
188	441	297
189	764	238
190	504	147
191	488	66
192	509	204
193	575	226
194	596	931
195	578	922
196	496	161
197	361	962
198	539	869
199	460	149
200	468	807
201	448	49
202	609	100
203	537	7
204	537	228
205	697	29
206	440	120
207	400	190
208	469	264
209	425	950
210	562	167
211	523	61
212	572	82
213	423	903
214	451	908
215	513	236
216	440	203
217	628	934
218	632	84
219	528	30
220	490	1
221	508	184
222	635	25
223	490	104
224	528	2
225	434	938
226	482	957
227	457	847
228	453	24
229	495	287
230	183	354
231	563	201
232	444	930
233	814	278
234	359	893
235	498	49
236	521	240
237	598	325
238	557	228
239	552	367
240	665	287
241	549	277
242	474	937
243	499	922
244	522	337
245	442	130
246	559	398
247	498	46
248	564	162
249	524	193
250	515	935
251	605	773
DEMAND_SECTION
1	0
2	5
3	7
4	5
5	8
6	7
7	8
8	7
9	9
10	7
11	6
12	7
13	8
14	6
15	9
16	8
17	8
18	9
19	6
20	8
21	5
22	6
23	7
24	7
25	6
26	9
27	6
28	7
29	10
30	9
31	5
32	10
33	10
34	9
35	5
36	7
37	6
38	9
39	8
40	9
41	6
42	5
43	8
44	6
45	5
46	5
47	5
48	7
49	5
50	7
51	7
52	8
53	9
54	10
55	5
56	10
57	10
58	9
59	8
60	9
61	7
62	10
63	10
64	6
65	9
66	8
67	9
68	7
69	5
70	8
71	10
72	9
73	7
74	8
75	9
76	5
77	10
78	8
79	9
80	9
81	8
82	9
83	8
84	10
85	5
86	10
87	6
88	10
89	7
90	8
91	5
92	7
93	7
94	5
95	5
96	7
97	5
98	9
99	6
100	10
101	5
102	7
103	5
104	5
105	6
106	5
107	9
108	7
109	6
110	8
111	7
112	6
113	6
114	6
115	9
116	7
117	8
118	9
119	9
120	8
121	8
122	9
123	5
124	10
125	5
126	6
127	10
128	7
129	10
130	8
131	9
132	5
133	10
134	5
135	9
136	5
137	10
138	5
139	9
140	10
141	9
142	9
143	8
144	7
145	10
146	5
147	5
148	8
149	7
150	8
151	6
152	9
153	6
154	7
155	9
156	9
157	5
158	10
159	5
160	8
161	6
162	7
163	9
164	9
165	5
166	8
167	9
168	8
169	10
170	9
171	5
172	5
173	8
174	10
175	5
176	10
177	7
178	8
179	10
180	9
181	6
182	9
183	5
184	7
185	7
186	10
187	6
188	8
189	8
190	5
191	8
192	8
193	10
194	8
195	5
196	5
197	9
198	7
199	8
200	9
201	7
202	7
203	9
204	6
205	6
206	10
207	8
208	10
209	9
210	10
211	6
212	8
213	7
214	7
215	6
216	9
217	10
218	8
219	8
220	8
221	6
222	6
223	8
224	8
225	9
226	6
227	5
228	5
229	7
230	7
231	10
232	8
233	6
234	7
235	10
236	6
237	5
238	7
239	8
240	7
241	8
242	7
243	6
244	8
245	6
246	6
247	6
248	9
249	9
250	7
251	5
CAPACITY_SECTION
1	30
2	30
3	30
4	30
5	30
6	30
7	30
8	30
9	30
10	30
11	30
12	30
13	30
14	30
15	30
16	30
17	30
18	30
19	30
20	30
21	30
22	30
23	30
24	30
25	30
26	30
27	30
28	30
29	30
30	30
31	30
32	30
33	30
34	30
35	30
36	30
37	30
38	30
39	30
40	30
41	30
42	30
43	30
44	30
45	30
46	30
47	30
48	30
49	30
50	30
51	30
52	30
53	30
54	30
55	30
56	30
57	30
58	30
59	30
60	30
61	30
62	30
63	30
64	30
65	30
66	30
67	30
68	30
69	30
70	30
71	30
72	30
73	30
74	30
75	30
76	30
77	30
78	30
79	30
80	30
81	30
82	30
83	30
84	30
85	30
86	30
87	30
88	30
89	30
90	30
91	30
92	30
93	30
94	30
95	30
96	30
97	30
98	30
99	30
100	30
101	30
102	30
103	30
104	30
105	30
106	30
107	30
108	30
109	30
110	30
111	30
112	30
113	30
114	30
115	30
116	30
117	30
118	30
119	30
120	30
121	30
122	30
123	30
124	30
125	30
126	30
127	30
128	30
129	30
130	30
131	30
132	30
133	30
134	30
135	30
136	30
137	30
138	30
139	30
140	30
141	30
142	30
143	30
144	30
145	30
146	30
147	30
148	30
149	30
150	30
151	30
152	30
153	30
154	30
155	30
156	30
157	30
158	30
159	30
160	30
161	30
162	30
163	30
164	30
165	30
166	30
167	30
168	30
169	30
170	30
171	30
172	30
173	30
174	30
175	30
176	30
177	30
178	30
179	30
180	30
181	30
182	30
183	30
184	30
185	30
186	30
187	30
188	30
189	30
190	30
191	30
192	30
193	30
194	30
195	30
196	30
197	30
198	30
199	30
200	30
201	30
202	30
203	30
204	30
205	30
206	30
207	30
208	30
209	30
210	30
211	30
212	30
213	30
214	30
215	30
216	30
217	30
218	30
219	30
220	30
221	30
222	30
223	30
224	30
225	30
226	30
227	30
228	30
229	30
230	30
231	30
232	30
233	30
234	30
235	30
236	30
237	30
238	30
239	30
240	30
241	30
242	30
243	30
244	30
245	30
246	30
247	30
248	30
249	30
250	30
251	59
252	59
253	59
254	59
255	59
256	59
257	59
258	59
259	59
260	59
261	59
262	59
263	59
264	59
265	59
266	59
267	59
268	59
269	59
270	59
271	59
272	59
273	59
274	59
275	59
276	59
277	59
278	59
279	59
280	59
281	59
282	59
283	59
284	59
285	59
286	59
287	59
288	59
289	59
290	59
291	59
292	59
293	59
294	59
295	59
296	59
297	59
298	59
299	59
300	59
301	59
302	59
303	59
304	59
305	59
306	59
307	59
308	59
309	59
310	59
311	59
312	59
313	59
314	59
315	59
316	59
317	59
318	59
319	59
320	59
321	59
322	59
323	59
324	59
325	59
326	59
327	59
328	59
329	59
330	59
331	59
332	59
333	59
334	59
335	59
336	59
337	59
338	59
339	59
340	59
341	59
342	59
343	59
344	59
345	59
346	59
347	59
348	59
349	59
350	59
351	59
352	59
353	59
354	59
355	59
356	59
357	59
358	59
359	59
360	59
361	59
362	59
363	59
364	59
365	59
366	59
367	59
368	59
369	59
370	59
371	59
372	59
373	59
374	59
375	59
376	59
377	59
378	59
379	59
380	59
381	59
382	59
383	59
384	59
385	59
386	59
387	59
388	59
389	59
390	59
391	59
392	59
393	59
394	59
395	59
396	59
397	59
398	59
399	59
400	59
401	59
402	59
403	59
404	59
405	59
406	59
407	59
408	59
409	59
410	59
411	59
412	59
413	59
414	59
415	59
416	59
417	59
418	59
419	59
420	59
421	59
422	59
423	59
424	59
425	59
426	59
427	59
428	59
429	59
430	59
431	59
432	59
433	59
434	59
435	59
436	59
437	59
438	59
439	59
440	59
441	59
442	59
443	59
444	59
445	59
446	59
447	59
448	59
449	59
450	59
451	59
452	59
453	59
454	59
455	59
456	59
457	59
458	59
459	59
460	59
461	59
462	59
463	59
464	59
465	59
466	59
467	59
468	59
469	59
470	59
471	59
472	59
473	59
474	59
475	59
476	59
477	59
478	59
479	59
480	59
481	59
482	59
483	59
484	59
485	59
486	59
487	59
488	59
489	59
490	59
491	59
492	59
493	59
494	59
495	59
496	59
497	59
498	59
499	59
500	59
501	118
502	118
503	118
504	118
505	118
506	118
507	118
508	118
509	118
510	118
511	118
512	118
513	118
514	118
515	118
516	118
517	118
518	118
519	118
520	118
521	118
522	118
523	118
524	118
525	118
526	118
527	118
528	118
529	118
530	118
531	118
532	118
533	118
534	118
535	118
536	118
537	118
538	118
539	118
540	118
541	118
542	118
543	118
544	118
545	118
546	118
547	118
548	118
549	118
550	118
551	118
552	118
553	118
554	118
555	118
556	118
557	118
558	118
559	118
560	118
561	118
562	118
563	118
564	118
565	118
566	118
567	118
568	118
569	118
570	118
571	118
572	118
573	118
574	118
575	118
576	118
577	118
578	118
579	118
580	118
581	118
582	118
583	118
584	118
585	118
586	118
587	118
588	118
589	118
590	118
591	118
592	118
593	118
594	118
595	118
596	118
597	118
598	118
599	118
600	118
601	118
602	118
603	118
604	118
605	118
606	118
607	118
608	118
609	118
610	118
611	118
612	118
613	118
614	118
615	118
616	118
617	118
618	118
619	118
620	118
621	118
622	118
623	118
624	118
625	118
626	118
627	118
628	118
629	118
630	118
631	118
632	118
633	118
634	118
635	118
636	118
637	118
638	118
639	118
640	118
641	118
642	118
643	118
644	118
645	118
646	118
647	118
648	118
649	118
650	118
651	118
652	118
653	118
654	118
655	118
656	118
657	118
658	118
659	118
660	118
661	118
662	118
663	118
664	118
665	118
666	118
667	118
668	118
669	118
670	118
671	118
672	118
673	118
674	118
675	118
676	118
677	118
678	118
679	118
680	118
681	118
682	118
683	118
684	118
685	118
686	118
687	118
688	118
689	118
690	118
691	118
692	118
693	118
694	118
695	118
696	118
697	118
698	118
699	118
700	118
701	118
702	118
703	118
704	118
705	118
706	118
707	118
708	118
709	118
710	118
711	118
712	118
713	118
714	118
715	118
716	118
717	118
718	118
719	118
720	118
721	118
722	118
723	118
724	118
725	118
726	118
727	118
728	118
729	118
730	118
731	118
732	118
733	118
734	118
735	118
736	118
737	118
738	118
739	118
740	118
741	118
742	118
743	118
744	118
745	118
746	118
747	118
748	118
749	118
750	118
VEHICLES_UNIT_DISTANCE_COST_SECTION
1	50
2	50
3	50
4	50
5	50
6	50
7	50
8	50
9	50
10	50
11	50
12	50
13	50
14	50
15	50
16	50
17	50
18	50
19	50
20	50
21	50
22	50
23	50
24	50
25	50
26	50
27	50
28	50
29	50
30	50
31	50
32	50
33	50
34	50
35	50
36	50
37	50
38	50
39	50
40	50
41	50
42	50
43	50
44	50
45	50
46	50
47	50
48	50
49	50
50	50
51	50
52	50
53	50
54	50
55	50
56	50
57	50
58	50
59	50
60	50
61	50
62	50
63	50
64	50
65	50
66	50
67	50
68	50
69	50
70	50
71	50
72	50
73	50
74	50
75	50
76	50
77	50
78	50
79	50
80	50
81	50
82	50
83	50
84	50
85	50
86	50
87	50
88	50
89	50
90	50
91	50
92	50
93	50
94	50
95	50
96	50
97	50
98	50
99	50
100	50
101	50
102	50
103	50
104	50
105	50
106	50
107	50
108	50
109	50
110	50
111	50
112	50
113	50
114	50
115	50
116	50
117	50
118	50
119	50
120	50
121	50
122	50
123	50
124	50
125	50
126	50
127	50
128	50
129	50
130	50
131	50
132	50
133	50
134	50
135	50
136	50
137	50
138	50
139	50
140	50
141	50
142	50
143	50
144	50
145	50
146	50
147	50
148	50
149	50
150	50
151	50
152	50
153	50
154	50
155	50
156	50
157	50
158	50
159	50
160	50
161	50
162	50
163	50
164	50
165	50
166	50
167	50
168	50
169	50
170	50
171	50
172	50
173	50
174	50
175	50
176	50
177	50
178	50
179	50
180	50
181	50
182	50
183	50
184	50
185	50
186	50
187	50
188	50
189	50
190	50
191	50
192	50
193	50
194	50
195	50
196	50
197	50
198	50
199	50
200	50
201	50
202	50
203	50
204	50
205	50
206	50
207	50
208	50
209	50
210	50
211	50
212	50
213	50
214	50
215	50
216	50
217	50
218	50
219	50
220	50
221	50
222	50
223	50
224	50
225	50
226	50
227	50
228	50
229	50
230	50
231	50
232	50
233	50
234	50
235	50
236	50
237	50
238	50
239	50
240	50
241	50
242	50
243	50
244	50
245	50
246	50
247	50
248	50
249	50
250	50
251	100
252	100
253	100
254	100
255	100
256	100
257	100
258	100
259	100
260	100
261	100
262	100
263	100
264	100
265	100
266	100
267	100
268	100
269	100
270	100
271	100
272	100
273	100
274	100
275	100
276	100
277	100
278	100
279	100
280	100
281	100
282	100
283	100
284	100
285	100
286	100
287	100
288	100
289	100
290	100
291	100
292	100
293	100
294	100
295	100
296	100
297	100
298	100
299	100
300	100
301	100
302	100
303	100
304	100
305	100
306	100
307	100
308	100
309	100
310	100
311	100
312	100
313	100
314	100
315	100
316	100
317	100
318	100
319	100
320	100
321	100
322	100
323	100
324	100
325	100
326	100
327	100
328	100
329	100
330	100
331	100
332	100
333	100
334	100
335	100
336	100
337	100
338	100
339	100
340	100
341	100
342	100
343	100
344	100
345	100
346	100
347	100
348	100
349	100
350	100
351	100
352	100
353	100
354	100
355	100
356	100
357	100
358	100
359	100
360	100
361	100
362	100
363	100
364	100
365	100
366	100
367	100
368	100
369	100
370	100
371	100
372	100
373	100
374	100
375	100
376	100
377	100
378	100
379	100
380	100
381	100
382	100
383	100
384	100
385	100
386	100
387	100
388	100
389	100
390	100
391	100
392	100
393	100
394	100
395	100
396	100
397	100
398	100
399	100
400	100
401	100
402	100
403	100
404	100
405	100
406	100
407	100
408	100
409	100
410	100
411	100
412	100
413	100
414	100
415	100
416	100
417	100
418	100
419	100
420	100
421	100
422	100
423	100
424	100
425	100
426	100
427	100
428	100
429	100
430	100
431	100
432	100
433	100
434	100
435	100
436	100
437	100
438	100
439	100
440	100
441	100
442	100
443	100
444	100
445	100
446	100
447	100
448	100
449	100
450	100
451	100
452	100
453	100
454	100
455	100
456	100
457	100
458	100
459	100
460	100
461	100
462	100
463	100
464	100
465	100
466	100
467	100
468	100
469	100
470	100
471	100
472	100
473	100
474	100
475	100
476	100
477	100
478	100
479	100
480	100
481	100
482	100
483	100
484	100
485	100
486	100
487	100
488	100
489	100
490	100
491	100
492	100
493	100
494	100
495	100
496	100
497	100
498	100
499	100
500	100
501	200
502	200
503	200
504	200
505	200
506	200
507	200
508	200
509	200
510	200
511	200
512	200
513	200
514	200
515	200
516	200
517	200
518	200
519	200
520	200
521	200
522	200
523	200
524	200
525	200
526	200
527	200
528	200
529	200
530	200
531	200
532	200
533	200
534	200
535	200
536	200
537	200
538	200
539	200
540	200
541	200
542	200
543	200
544	200
545	200
546	200
547	200
548	200
549	200
550	200
551	200
552	200
553	200
554	200
555	200
556	200
557	200
558	200
559	200
560	200
561	200
562	200
563	200
564	200
565	200
566	200
567	200
568	200
569	200
570	200
571	200
572	200
573	200
574	200
575	200
576	200
577	200
578	200
579	200
580	200
581	200
582	200
583	200
584	200
585	200
586	200
587	200
588	200
589	200
590	200
591	200
592	200
593	200
594	200
595	200
596	200
597	200
598	200
599	200
600	200
601	200
602	200
603	200
604	200
605	200
606	200
607	200
608	200
609	200
610	200
611	200
612	200
613	200
614	200
615	200
616	200
617	200
618	200
619	200
620	200
621	200
622	200
623	200
624	200
625	200
626	200
627	200
628	200
629	200
630	200
631	200
632	200
633	200
634	200
635	200
636	200
637	200
638	200
639	200
640	200
641	200
642	200
643	200
644	200
645	200
646	200
647	200
648	200
649	200
650	200
651	200
652	200
653	200
654	200
655	200
656	200
657	200
658	200
659	200
660	200
661	200
662	200
663	200
664	200
665	200
666	200
667	200
668	200
669	200
670	200
671	200
672	200
673	200
674	200
675	200
676	200
677	200
678	200
679	200
680	200
681	200
682	200
683	200
684	200
685	200
686	200
687	200
688	200
689	200
690	200
691	200
692	200
693	200
694	200
695	200
696	200
697	200
698	200
699	200
700	200
701	200
702	200
703	200
704	200
705	200
706	200
707	200
708	200
709	200
710	200
711	200
712	200
713	200
714	200
715	200
716	200
717	200
718	200
719	200
720	200
721	200
722	200
723	200
724	200
725	200
726	200
727	200
728	200
729	200
730	200
731	200
732	200
733	200
734	200
735	200
736	200
737	200
738	200
739	200
740	200
741	200
742	200
743	200
744	200
745	200
746	200
747	200
748	200
749	200
750	200
DEPOT_SECTION
1
EOF
