HFVRP/X251-FSMD.sol
Route #1: 55 31 118
Route #2: 20 81 4 229
Route #3: 40 157 102 42
Route #4: 53 11 73 96
Route #5: 14 69 35 111
Route #6: 187 137 71 116
Route #7: 87 3 21 179
Route #8: 23 110 113 136
Route #9: 206 39 86 9
Route #10: 130 64 200 158
Route #11: 205 244 198 108
Route #12: 207 152 228 184
Route #13: 66 17 214 235
Route #14: 140 159 227 147
Route #15: 215 195 62 220
Route #16: 189 177 222 138
Route #17: 128 131 219 176
Route #18: 190 234 246 210
Route #19: 148 145 172 28
Route #20: 160 248 191 183
Route #21: 67 141 135 181
Route #22: 218 171 202 223
Route #23: 165 8 211 182
Route #24: 167 247 161 203
Route #25: 209 173 230
Route #26: 117 94 221 175
Route #27: 237 127 192 150
Route #28: 201 156 217 76
Route #29: 22 166 154 133
Route #30: 245 238 243 82
Route #31: 146 204 114 164 124
Route #32: 178 168 236 45
Route #33: 149 239 143 240
Route #34: 123 51 34 153
Route #35: 72 32 188 84
Route #36: 56 74 105 232
Route #37: 26 13 52 59
Route #38: 93 99 109 115
Route #39: 43 29 12 91
Route #40: 89 122 68 49 100
Route #41: 144 169 125 75
Route #42: 57 70 18 54
Route #43: 61 48 104 134
Route #44: 41 250 60 120 226
Route #45: 180 63 44 30 88
Route #46: 27 50 33 92
Route #47: 24 216 129 10
Route #48: 77 193 194 163
Route #49: 213 249 151 197
Route #50: 155 242 46 126
Route #51: 231 225 241 162
Route #52: 208 224 170 212
Route #53: 65 199 16 1
Route #54: 6 139 36 186
Route #55: 19 185 233 174
Route #56: 142 196 2 98
Route #57: 83 132 38
Route #58: 5 47 119 80
Route #59: 85 7 78
Route #60: 95 58 106
Route #61: 101 103 25 15
Route #62: 79 37 107
Route #63: 97 121 112 90
Route #64: 
Route #65: 
Route #66: 
Route #67: 
Route #68: 
Route #69: 
Route #70: 
Route #71: 
Route #72: 
Route #73: 
Route #74: 
Route #75: 
Route #76: 
Route #77: 
Route #78: 
Route #79: 
Route #80: 
Route #81: 
Route #82: 
Route #83: 
Route #84: 
Route #85: 
Route #86: 
Route #87: 
Route #88: 
Route #89: 
Route #90: 
Route #91: 
Route #92: 
Route #93: 
Route #94: 
Route #95: 
Route #96: 
Route #97: 
Route #98: 
Route #99: 
Route #100: 
Route #101: 
Route #102: 
Route #103: 
Route #104: 
Route #105: 
Route #106: 
Route #107: 
Route #108: 
Route #109: 
Route #110: 
Route #111: 
Route #112: 
Route #113: 
Route #114: 
Route #115: 
Route #116: 
Route #117: 
Route #118: 
Route #119: 
Route #120: 
Route #121: 
Route #122: 
Route #123: 
Route #124: 
Route #125: 
Route #126: 
Route #127: 
Route #128: 
Route #129: 
Route #130: 
Route #131: 
Route #132: 
Route #133: 
Route #134: 
Route #135: 
Route #136: 
Route #137: 
Route #138: 
Route #139: 
Route #140: 
Route #141: 
Route #142: 
Route #143: 
Route #144: 
Route #145: 
Route #146: 
Route #147: 
Route #148: 
Route #149: 
Route #150: 
Route #151: 
Route #152: 
Route #153: 
Route #154: 
Route #155: 
Route #156: 
Route #157: 
Route #158: 
Route #159: 
Route #160: 
Route #161: 
Route #162: 
Route #163: 
Route #164: 
Route #165: 
Route #166: 
Route #167: 
Route #168: 
Route #169: 
Route #170: 
Route #171: 
Route #172: 
Route #173: 
Route #174: 
Route #175: 
Route #176: 
Route #177: 
Route #178: 
Route #179: 
Route #180: 
Route #181: 
Route #182: 
Route #183: 
Route #184: 
Route #185: 
Route #186: 
Route #187: 
Route #188: 
Route #189: 
Route #190: 
Route #191: 
Route #192: 
Route #193: 
Route #194: 
Route #195: 
Route #196: 
Route #197: 
Route #198: 
Route #199: 
Route #200: 
Route #201: 
Route #202: 
Route #203: 
Route #204: 
Route #205: 
Route #206: 
Route #207: 
Route #208: 
Route #209: 
Route #210: 
Route #211: 
Route #212: 
Route #213: 
Route #214: 
Route #215: 
Route #216: 
Route #217: 
Route #218: 
Route #219: 
Route #220: 
Route #221: 
Route #222: 
Route #223: 
Route #224: 
Route #225: 
Route #226: 
Route #227: 
Route #228: 
Route #229: 
Route #230: 
Route #231: 
Route #232: 
Route #233: 
Route #234: 
Route #235: 
Route #236: 
Route #237: 
Route #238: 
Route #239: 
Route #240: 
Route #241: 
Route #242: 
Route #243: 
Route #244: 
Route #245: 
Route #246: 
Route #247: 
Route #248: 
Route #249: 
Route #250: 
Route #251: 
Route #252: 
Route #253: 
Route #254: 
Route #255: 
Route #256: 
Route #257: 
Route #258: 
Route #259: 
Route #260: 
Route #261: 
Route #262: 
Route #263: 
Route #264: 
Route #265: 
Route #266: 
Route #267: 
Route #268: 
Route #269: 
Route #270: 
Route #271: 
Route #272: 
Route #273: 
Route #274: 
Route #275: 
Route #276: 
Route #277: 
Route #278: 
Route #279: 
Route #280: 
Route #281: 
Route #282: 
Route #283: 
Route #284: 
Route #285: 
Route #286: 
Route #287: 
Route #288: 
Route #289: 
Route #290: 
Route #291: 
Route #292: 
Route #293: 
Route #294: 
Route #295: 
Route #296: 
Route #297: 
Route #298: 
Route #299: 
Route #300: 
Route #301: 
Route #302: 
Route #303: 
Route #304: 
Route #305: 
Route #306: 
Route #307: 
Route #308: 
Route #309: 
Route #310: 
Route #311: 
Route #312: 
Route #313: 
Route #314: 
Route #315: 
Route #316: 
Route #317: 
Route #318: 
Route #319: 
Route #320: 
Route #321: 
Route #322: 
Route #323: 
Route #324: 
Route #325: 
Route #326: 
Route #327: 
Route #328: 
Route #329: 
Route #330: 
Route #331: 
Route #332: 
Route #333: 
Route #334: 
Route #335: 
Route #336: 
Route #337: 
Route #338: 
Route #339: 
Route #340: 
Route #341: 
Route #342: 
Route #343: 
Route #344: 
Route #345: 
Route #346: 
Route #347: 
Route #348: 
Route #349: 
Route #350: 
Route #351: 
Route #352: 
Route #353: 
Route #354: 
Route #355: 
Route #356: 
Route #357: 
Route #358: 
Route #359: 
Route #360: 
Route #361: 
Route #362: 
Route #363: 
Route #364: 
Route #365: 
Route #366: 
Route #367: 
Route #368: 
Route #369: 
Route #370: 
Route #371: 
Route #372: 
Route #373: 
Route #374: 
Route #375: 
Route #376: 
Route #377: 
Route #378: 
Route #379: 
Route #380: 
Route #381: 
Route #382: 
Route #383: 
Route #384: 
Route #385: 
Route #386: 
Route #387: 
Route #388: 
Route #389: 
Route #390: 
Route #391: 
Route #392: 
Route #393: 
Route #394: 
Route #395: 
Route #396: 
Route #397: 
Route #398: 
Route #399: 
Route #400: 
Route #401: 
Route #402: 
Route #403: 
Route #404: 
Route #405: 
Route #406: 
Route #407: 
Route #408: 
Route #409: 
Route #410: 
Route #411: 
Route #412: 
Route #413: 
Route #414: 
Route #415: 
Route #416: 
Route #417: 
Route #418: 
Route #419: 
Route #420: 
Route #421: 
Route #422: 
Route #423: 
Route #424: 
Route #425: 
Route #426: 
Route #427: 
Route #428: 
Route #429: 
Route #430: 
Route #431: 
Route #432: 
Route #433: 
Route #434: 
Route #435: 
Route #436: 
Route #437: 
Route #438: 
Route #439: 
Route #440: 
Route #441: 
Route #442: 
Route #443: 
Route #444: 
Route #445: 
Route #446: 
Route #447: 
Route #448: 
Route #449: 
Route #450: 
Route #451: 
Route #452: 
Route #453: 
Route #454: 
Route #455: 
Route #456: 
Route #457: 
Route #458: 
Route #459: 
Route #460: 
Route #461: 
Route #462: 
Route #463: 
Route #464: 
Route #465: 
Route #466: 
Route #467: 
Route #468: 
Route #469: 
Route #470: 
Route #471: 
Route #472: 
Route #473: 
Route #474: 
Route #475: 
Route #476: 
Route #477: 
Route #478: 
Route #479: 
Route #480: 
Route #481: 
Route #482: 
Route #483: 
Route #484: 
Route #485: 
Route #486: 
Route #487: 
Route #488: 
Route #489: 
Route #490: 
Route #491: 
Route #492: 
Route #493: 
Route #494: 
Route #495: 
Route #496: 
Route #497: 
Route #498: 
Route #499: 
Route #500: 
Route #501: 
Route #502: 
Route #503: 
Route #504: 
Route #505: 
Route #506: 
Route #507: 
Route #508: 
Route #509: 
Route #510: 
Route #511: 
Route #512: 
Route #513: 
Route #514: 
Route #515: 
Route #516: 
Route #517: 
Route #518: 
Route #519: 
Route #520: 
Route #521: 
Route #522: 
Route #523: 
Route #524: 
Route #525: 
Route #526: 
Route #527: 
Route #528: 
Route #529: 
Route #530: 
Route #531: 
Route #532: 
Route #533: 
Route #534: 
Route #535: 
Route #536: 
Route #537: 
Route #538: 
Route #539: 
Route #540: 
Route #541: 
Route #542: 
Route #543: 
Route #544: 
Route #545: 
Route #546: 
Route #547: 
Route #548: 
Route #549: 
Route #550: 
Route #551: 
Route #552: 
Route #553: 
Route #554: 
Route #555: 
Route #556: 
Route #557: 
Route #558: 
Route #559: 
Route #560: 
Route #561: 
Route #562: 
Route #563: 
Route #564: 
Route #565: 
Route #566: 
Route #567: 
Route #568: 
Route #569: 
Route #570: 
Route #571: 
Route #572: 
Route #573: 
Route #574: 
Route #575: 
Route #576: 
Route #577: 
Route #578: 
Route #579: 
Route #580: 
Route #581: 
Route #582: 
Route #583: 
Route #584: 
Route #585: 
Route #586: 
Route #587: 
Route #588: 
Route #589: 
Route #590: 
Route #591: 
Route #592: 
Route #593: 
Route #594: 
Route #595: 
Route #596: 
Route #597: 
Route #598: 
Route #599: 
Route #600: 
Route #601: 
Route #602: 
Route #603: 
Route #604: 
Route #605: 
Route #606: 
Route #607: 
Route #608: 
Route #609: 
Route #610: 
Route #611: 
Route #612: 
Route #613: 
Route #614: 
Route #615: 
Route #616: 
Route #617: 
Route #618: 
Route #619: 
Route #620: 
Route #621: 
Route #622: 
Route #623: 
Route #624: 
Route #625: 
Route #626: 
Route #627: 
Route #628: 
Route #629: 
Route #630: 
Route #631: 
Route #632: 
Route #633: 
Route #634: 
Route #635: 
Route #636: 
Route #637: 
Route #638: 
Route #639: 
Route #640: 
Route #641: 
Route #642: 
Route #643: 
Route #644: 
Route #645: 
Route #646: 
Route #647: 
Route #648: 
Route #649: 
Route #650: 
Route #651: 
Route #652: 
Route #653: 
Route #654: 
Route #655: 
Route #656: 
Route #657: 
Route #658: 
Route #659: 
Route #660: 
Route #661: 
Route #662: 
Route #663: 
Route #664: 
Route #665: 
Route #666: 
Route #667: 
Route #668: 
Route #669: 
Route #670: 
Route #671: 
Route #672: 
Route #673: 
Route #674: 
Route #675: 
Route #676: 
Route #677: 
Route #678: 
Route #679: 
Route #680: 
Route #681: 
Route #682: 
Route #683: 
Route #684: 
Route #685: 
Route #686: 
Route #687: 
Route #688: 
Route #689: 
Route #690: 
Route #691: 
Route #692: 
Route #693: 
Route #694: 
Route #695: 
Route #696: 
Route #697: 
Route #698: 
Route #699: 
Route #700: 
Route #701: 
Route #702: 
Route #703: 
Route #704: 
Route #705: 
Route #706: 
Route #707: 
Route #708: 
Route #709: 
Route #710: 
Route #711: 
Route #712: 
Route #713: 
Route #714: 
Route #715: 
Route #716: 
Route #717: 
Route #718: 
Route #719: 
Route #720: 
Route #721: 
Route #722: 
Route #723: 
Route #724: 
Route #725: 
Route #726: 
Route #727: 
Route #728: 
Route #729: 
Route #730: 
Route #731: 
Route #732: 
Route #733: 
Route #734: 
Route #735: 
Route #736: 
Route #737: 
Route #738: 
Route #739: 
Route #740: 
Route #741: 
Route #742: 
Route #743: 
Route #744: 
Route #745: 
Route #746: 
Route #747: 
Route #748: 
Route #749: 
Route #750: 
Cost: 39993.13
